\ENCODING=ISO-8859-1
\Problem name: instances

Maximize
 obj:
Subject To
 c1: 98 x1 + 45 x2 - 95 x3 + 27 x4 + 75 x5 + 41 x6 - 88 x8 + 44 x9 <= 101
 c2: 70 x1 + 80 x2 + 15 x3 + 53 x4 - 77 x5 + 24 x6 + 71 x7 - 35 x8 + 15 x9
     + 99 x10 <= 249
 c3: 37 x1 + 23 x4 + 14 x5 + 88 x6 + 13 x7 + 46 x8 + 46 x9 + 10 x10 <= 156
 c4: 18 x1 + 23 x2 + 87 x3 + 25 x4 - 87 x5 + 71 x6 + 81 x8 + 57 x9 - 83 x10
     <= 139
 c5: 5 x1 + 59 x2 + 82 x3 + 61 x5 + 36 x6 + 8 x7 + 62 x9 + 74 x10 <= 348
Bounds
      x1 >= 0
      x2 >= 0
      x3 >= 0
      x4 >= 0
      x5 >= 0
      x6 >= 0
      x7 >= 0
      x8 >= 0
      x9 >= 0
      x10 >= 0
Generals
 x1  x2  x3  x4  x5  x6  x7  x8  x9  x10 
End
